23
21
21
21
24
19
20
23
22
22
24
28
25
21
24
25
23
25
23
24
22
25
22
22
25
24
22
26
26
25
24
25
28
27
29
25
27
27
29
30
20
20
20
20
24
20
19
19
19
20
26
29
23
22
29
26
21
22
20
27
24
22
24
23
22
26
24
27
23
23
28
25
31
31
27
28
26
26
26
33
22
21
22
20
20